%%% static parameters %%%
timespan = 1;
Clients_N = [1000];
Demand_W = [15];
Lt0 = [4];
Lt1 = [4];
SS_ = [0.85];
DS_D = [20];
K = [200];
MA = [500];
HC = [0.05];
%%% dynamic parameters %%%
lost_ratio_sales_ret_th = 0.002120200495421807;
lost_ratio_sales_ret_w = 31;
lost_ratio_sales_dis_th = 0.004245278595774869;
lost_ratio_sales_dis_w = 49;
lost_ratio_sales_fac_th = 0.0038713041364837808;
lost_ratio_sales_fac_w = 92;
stock_customer_MA_mean_relative_th = 0.17642687958594516;
stock_customer_MA_mean_relative_w = 16;
stock_distributor_MA_mean_relative_th = 0.12865832516193032;
stock_distributor_MA_mean_relative_w = 83;
stock_retailer_MA_mean_relative_th = 0.6419562833442684;
stock_retailer_MA_mean_relative_w = 81;
stock_factory_MA_mean_relative_th = 0.7972097253670803;
stock_factory_MA_mean_relative_w = 53;
